/*********************************************
 * OPL 12.6.0.0 Data
 * Author: root
 * Creation Date: 21/06/2016 at 12:38:00
 *********************************************/ 
 nTrucks=1;
nPackages=4;
xTruck=5;
yTruck=5;
wTruck=10;
xDimp=[2 3 2 3];
yDimp=[2 2 3 3];
wp=[3 2 2 2];
incomp=[
 [0 0 0 0]
 [0 0 0 0]
 [0 0 0 0]
 [0 0 0 0]];